language Essence 1.3
letting nnodes be 10
letting nrings be 6
letting capacity be 5
letting demand be {{1, 5},
{3, 6},
{3, 7},
{3, 8},
{4, 5},
{4, 6},
{4, 7},
{4, 10},
{5, 6},
{5, 7},
{5, 10},
{6, 7},
{6, 8},
{6, 9},
{9, 10}}
